(set-logic LIA)
(synth-fun next ((brake Int) (distance Int) (speed Int) (throttle Int) (ignition Bool) (time Int) ) Int
	((Start Int) (Var Int) (StartBool Bool))
	((Start Int (
				 1
				 3
				 5
				 (ite StartBool Start Start)))

	(Var Int (
			 0
			 1
			 2
			 192
			 1514
			 brake
			 distance
			 speed
			 throttle
			 time
			 (+ Var Var)						
			 (- Var Var)						
			 (* Var Var)))

	(StartBool Bool (
				 	 ignition
					(= Var Var)						
					(>= Var Var)						
					(<= Var Var)						
					(and StartBool StartBool)			
					(or  StartBool StartBool)				
					(not StartBool)))))

(constraint (= (next 0 0 0 0 true 1401 ) 3))
(constraint (= (next 0 0 0 0 true 1344 ) 1))
(constraint (= (next 0 0 0 0 true 1776 ) 3))
(constraint (= (next 0 0 0 0 true 1536 ) 5))

(check-synth)
